0 0 0 1 0 1 1 1 0 0 0 0 
0 12 9 43 6 3 25 50 20 24 37 29 
12 0 30 41 30 6 49 40 7 49 38 28 
9 30 0 10 12 37 21 43 43 14 37 20 
43 41 10 0 4 47 17 44 47 10 21 9 
6 30 12 4 0 4 19 49 27 18 35 47 
3 6 37 47 4 0 20 27 9 8 20 23 
25 49 21 17 19 20 0 36 31 15 31 30 
50 40 43 44 49 27 36 0 17 3 20 9 
20 7 43 47 27 9 31 17 0 4 24 40 
24 49 14 10 18 8 15 3 4 0 29 41 
37 38 37 21 35 20 31 20 24 29 0 41 
29 28 20 9 47 23 30 9 40 41 41 0 
3 21
1B 3B 5B 4P 12B 8P 11B 7P 10B 9B 2B 6P = 129